
Gurobi 5.6.0 (linux64) logging started Wed May 14 22:54:44 2014


Gurobi 5.6.0 (linux64) logging started Thu May 15 00:45:24 2014


Gurobi 5.6.0 (linux64) logging started Thu May 15 02:18:09 2014


Gurobi 5.6.0 (linux64) logging started Thu May 15 04:06:57 2014


Gurobi 5.6.0 (linux64) logging started Thu May 15 05:39:19 2014


Gurobi 5.6.0 (linux64) logging started Thu May 15 07:28:34 2014


Gurobi 5.6.0 (linux64) logging started Thu May 15 09:02:41 2014


Gurobi 5.6.0 (linux64) logging started Thu May 15 10:53:32 2014


Gurobi 5.6.0 (linux64) logging started Thu May 15 12:25:59 2014


Gurobi 5.6.0 (linux64) logging started Thu May 15 14:16:25 2014


Gurobi 5.6.0 (linux64) logging started Thu May 15 16:39:01 2014


Gurobi 5.6.0 (linux64) logging started Thu May 15 18:37:38 2014


Gurobi 5.6.0 (linux64) logging started Thu May 15 20:12:34 2014


Gurobi 5.6.0 (linux64) logging started Thu May 15 22:09:08 2014


Gurobi 5.6.0 (linux64) logging started Thu May 15 22:02:36 2014


Gurobi 5.6.0 (linux64) logging started Thu May 15 22:09:11 2014


Gurobi 5.6.0 (linux64) logging started Fri May 16 00:29:27 2014


Gurobi 5.6.0 (linux64) logging started Fri May 16 02:25:44 2014


Gurobi 5.6.0 (linux64) logging started Fri May 16 03:30:51 2014


Gurobi 5.6.0 (linux64) logging started Fri May 16 05:09:00 2014


Gurobi 5.6.0 (linux64) logging started Fri May 16 07:25:13 2014


Gurobi 5.6.0 (linux64) logging started Fri May 16 06:00:56 2014


Gurobi 5.6.0 (linux64) logging started Fri May 16 09:00:09 2014


Gurobi 5.6.0 (linux64) logging started Fri May 16 07:25:19 2014

